n = 15;
costtab =
  [|1, 6, 15, -1047,
   |1, 1, 1, 0,
   |2, 9, 14, -890,
   |2, 14, 9, -743,
   |2, 2, 2, 0,
   |3, 3, 3, 0,
   |4, 5, 8, -1093,
   |4, 8, 5, -1133,
   |4, 4, 4, 0,
   |5, 4, 13, -1113,
   |5, 13, 4, -943,
   |5, 5, 5, 0,
   |6, 7, 1, -824,
   |6, 7, 9, -812,
   |6, 7, 10, -836,
   |6, 9, 1, -611,
   |6, 9, 7, -575,
   |6, 9, 10, -598,
   |6, 10, 1, -776,
   |6, 10, 7, -782,
   |6, 10, 9, -782,
   |6, 6, 6, 0,
   |7, 3, 6, -1003,
   |7, 3, 9, -1003,
   |7, 3, 12, -1019,
   |7, 6, 3, -826,
   |7, 6, 9, -853,
   |7, 6, 12, -827,
   |7, 9, 3, -1368,
   |7, 9, 6, -1395,
   |7, 9, 12, -1366,
   |7, 12, 3, -846,
   |7, 12, 6, -831,
   |7, 12, 9, -828,
   |7, 7, 7, 0,
   |8, 15, 4, -660,
   |8, 8, 8, 0,
   |9, 2, 6, -877,
   |9, 2, 7, -873,
   |9, 6, 2, -600,
   |9, 6, 7, -615,
   |9, 7, 2, -1376,
   |9, 7, 6, -1395,
   |9, 9, 9, 0,
   |10, 6, 13, -796,
   |10, 13, 6, -1051,
   |10, 10, 10, 0,
   |11, 11, 11, 0,
   |12, 15, 7, -990,
   |12, 12, 12, 0,
   |13, 5, 10, -947,
   |13, 5, 11, -943,
   |13, 10, 5, -1051,
   |13, 10, 11, -1052,
   |13, 11, 5, -1045,
   |13, 11, 10, -1050,
   |13, 13, 13, 0,
   |14, 14, 14, 0,
   |];

